(set-logic QF_LRA)
(declare-fun X0 () Real )
(declare-fun Y0 () Real )
(declare-fun X1 () Real )
(declare-fun Y1 () Real )
(declare-fun X2 () Real )
(declare-fun Y2 () Real )
(declare-fun X3 () Real )
(declare-fun Y3 () Real )
(declare-fun X4 () Real )
(declare-fun Y4 () Real )
(declare-fun X5 () Real )
(declare-fun Y5 () Real )
(declare-fun X6 () Real )
(declare-fun Y6 () Real )
(declare-fun X7 () Real )
(declare-fun Y7 () Real )
(declare-fun X8 () Real )
(declare-fun Y8 () Real )
(declare-fun X9 () Real )
(declare-fun Y9 () Real )
(declare-fun X10 () Real )
(declare-fun Y10 () Real )
(declare-fun X11 () Real )
(declare-fun Y11 () Real )
(declare-fun X12 () Real )
(declare-fun Y12 () Real )
(declare-fun X13 () Real )
(declare-fun Y13 () Real )
(declare-fun X14 () Real )
(declare-fun Y14 () Real )
(declare-fun Z () Real )
(declare-fun k () Real )
(assert (let
(( $goal (>= Z k) ))
(let
((
$phi ( and 
( or ( <= ( + X0 45 ) X1 )  ( <= ( + X1 88 ) X0 )  ( <= ( + Y0 53 ) Y1 )  ( <= ( + Y1 37 ) Y0 )  )
( or ( <= ( + X0 45 ) X2 )  ( <= ( + X2 7 ) X0 )  ( <= ( + Y0 53 ) Y2 )  ( <= ( + Y2 81 ) Y0 )  )
( or ( <= ( + X0 45 ) X3 )  ( <= ( + X3 16 ) X0 )  ( <= ( + Y0 53 ) Y3 )  ( <= ( + Y3 5 ) Y0 )  )
( or ( <= ( + X0 45 ) X4 )  ( <= ( + X4 9 ) X0 )  ( <= ( + Y0 53 ) Y4 )  ( <= ( + Y4 25 ) Y0 )  )
( or ( <= ( + X0 45 ) X5 )  ( <= ( + X5 68 ) X0 )  ( <= ( + Y0 53 ) Y5 )  ( <= ( + Y5 63 ) Y0 )  )
( or ( <= ( + X0 45 ) X6 )  ( <= ( + X6 3 ) X0 )  ( <= ( + Y0 53 ) Y6 )  ( <= ( + Y6 53 ) Y0 )  )
( or ( <= ( + X0 45 ) X7 )  ( <= ( + X7 90 ) X0 )  ( <= ( + Y0 53 ) Y7 )  ( <= ( + Y7 69 ) Y0 )  )
( or ( <= ( + X0 45 ) X8 )  ( <= ( + X8 54 ) X0 )  ( <= ( + Y0 53 ) Y8 )  ( <= ( + Y8 72 ) Y0 )  )
( or ( <= ( + X0 45 ) X9 )  ( <= ( + X9 43 ) X0 )  ( <= ( + Y0 53 ) Y9 )  ( <= ( + Y9 65 ) Y0 )  )
( or ( <= ( + X0 45 ) X10 )  ( <= ( + X10 57 ) X0 )  ( <= ( + Y0 53 ) Y10 )  ( <= ( + Y10 47 ) Y0 )  )
( or ( <= ( + X0 45 ) X11 )  ( <= ( + X11 62 ) X0 )  ( <= ( + Y0 53 ) Y11 )  ( <= ( + Y11 25 ) Y0 )  )
( or ( <= ( + X0 45 ) X12 )  ( <= ( + X12 98 ) X0 )  ( <= ( + Y0 53 ) Y12 )  ( <= ( + Y12 84 ) Y0 )  )
( or ( <= ( + X0 45 ) X13 )  ( <= ( + X13 27 ) X0 )  ( <= ( + Y0 53 ) Y13 )  ( <= ( + Y13 37 ) Y0 )  )
( or ( <= ( + X0 45 ) X14 )  ( <= ( + X14 29 ) X0 )  ( <= ( + Y0 53 ) Y14 )  ( <= ( + Y14 14 ) Y0 )  )
( or ( <= ( + X1 88 ) X2 )  ( <= ( + X2 7 ) X1 )  ( <= ( + Y1 37 ) Y2 )  ( <= ( + Y2 81 ) Y1 )  )
( or ( <= ( + X1 88 ) X3 )  ( <= ( + X3 16 ) X1 )  ( <= ( + Y1 37 ) Y3 )  ( <= ( + Y3 5 ) Y1 )  )
( or ( <= ( + X1 88 ) X4 )  ( <= ( + X4 9 ) X1 )  ( <= ( + Y1 37 ) Y4 )  ( <= ( + Y4 25 ) Y1 )  )
( or ( <= ( + X1 88 ) X5 )  ( <= ( + X5 68 ) X1 )  ( <= ( + Y1 37 ) Y5 )  ( <= ( + Y5 63 ) Y1 )  )
( or ( <= ( + X1 88 ) X6 )  ( <= ( + X6 3 ) X1 )  ( <= ( + Y1 37 ) Y6 )  ( <= ( + Y6 53 ) Y1 )  )
( or ( <= ( + X1 88 ) X7 )  ( <= ( + X7 90 ) X1 )  ( <= ( + Y1 37 ) Y7 )  ( <= ( + Y7 69 ) Y1 )  )
( or ( <= ( + X1 88 ) X8 )  ( <= ( + X8 54 ) X1 )  ( <= ( + Y1 37 ) Y8 )  ( <= ( + Y8 72 ) Y1 )  )
( or ( <= ( + X1 88 ) X9 )  ( <= ( + X9 43 ) X1 )  ( <= ( + Y1 37 ) Y9 )  ( <= ( + Y9 65 ) Y1 )  )
( or ( <= ( + X1 88 ) X10 )  ( <= ( + X10 57 ) X1 )  ( <= ( + Y1 37 ) Y10 )  ( <= ( + Y10 47 ) Y1 )  )
( or ( <= ( + X1 88 ) X11 )  ( <= ( + X11 62 ) X1 )  ( <= ( + Y1 37 ) Y11 )  ( <= ( + Y11 25 ) Y1 )  )
( or ( <= ( + X1 88 ) X12 )  ( <= ( + X12 98 ) X1 )  ( <= ( + Y1 37 ) Y12 )  ( <= ( + Y12 84 ) Y1 )  )
( or ( <= ( + X1 88 ) X13 )  ( <= ( + X13 27 ) X1 )  ( <= ( + Y1 37 ) Y13 )  ( <= ( + Y13 37 ) Y1 )  )
( or ( <= ( + X1 88 ) X14 )  ( <= ( + X14 29 ) X1 )  ( <= ( + Y1 37 ) Y14 )  ( <= ( + Y14 14 ) Y1 )  )
( or ( <= ( + X2 7 ) X3 )  ( <= ( + X3 16 ) X2 )  ( <= ( + Y2 81 ) Y3 )  ( <= ( + Y3 5 ) Y2 )  )
( or ( <= ( + X2 7 ) X4 )  ( <= ( + X4 9 ) X2 )  ( <= ( + Y2 81 ) Y4 )  ( <= ( + Y4 25 ) Y2 )  )
( or ( <= ( + X2 7 ) X5 )  ( <= ( + X5 68 ) X2 )  ( <= ( + Y2 81 ) Y5 )  ( <= ( + Y5 63 ) Y2 )  )
( or ( <= ( + X2 7 ) X6 )  ( <= ( + X6 3 ) X2 )  ( <= ( + Y2 81 ) Y6 )  ( <= ( + Y6 53 ) Y2 )  )
( or ( <= ( + X2 7 ) X7 )  ( <= ( + X7 90 ) X2 )  ( <= ( + Y2 81 ) Y7 )  ( <= ( + Y7 69 ) Y2 )  )
( or ( <= ( + X2 7 ) X8 )  ( <= ( + X8 54 ) X2 )  ( <= ( + Y2 81 ) Y8 )  ( <= ( + Y8 72 ) Y2 )  )
( or ( <= ( + X2 7 ) X9 )  ( <= ( + X9 43 ) X2 )  ( <= ( + Y2 81 ) Y9 )  ( <= ( + Y9 65 ) Y2 )  )
( or ( <= ( + X2 7 ) X10 )  ( <= ( + X10 57 ) X2 )  ( <= ( + Y2 81 ) Y10 )  ( <= ( + Y10 47 ) Y2 )  )
( or ( <= ( + X2 7 ) X11 )  ( <= ( + X11 62 ) X2 )  ( <= ( + Y2 81 ) Y11 )  ( <= ( + Y11 25 ) Y2 )  )
( or ( <= ( + X2 7 ) X12 )  ( <= ( + X12 98 ) X2 )  ( <= ( + Y2 81 ) Y12 )  ( <= ( + Y12 84 ) Y2 )  )
( or ( <= ( + X2 7 ) X13 )  ( <= ( + X13 27 ) X2 )  ( <= ( + Y2 81 ) Y13 )  ( <= ( + Y13 37 ) Y2 )  )
( or ( <= ( + X2 7 ) X14 )  ( <= ( + X14 29 ) X2 )  ( <= ( + Y2 81 ) Y14 )  ( <= ( + Y14 14 ) Y2 )  )
( or ( <= ( + X3 16 ) X4 )  ( <= ( + X4 9 ) X3 )  ( <= ( + Y3 5 ) Y4 )  ( <= ( + Y4 25 ) Y3 )  )
( or ( <= ( + X3 16 ) X5 )  ( <= ( + X5 68 ) X3 )  ( <= ( + Y3 5 ) Y5 )  ( <= ( + Y5 63 ) Y3 )  )
( or ( <= ( + X3 16 ) X6 )  ( <= ( + X6 3 ) X3 )  ( <= ( + Y3 5 ) Y6 )  ( <= ( + Y6 53 ) Y3 )  )
( or ( <= ( + X3 16 ) X7 )  ( <= ( + X7 90 ) X3 )  ( <= ( + Y3 5 ) Y7 )  ( <= ( + Y7 69 ) Y3 )  )
( or ( <= ( + X3 16 ) X8 )  ( <= ( + X8 54 ) X3 )  ( <= ( + Y3 5 ) Y8 )  ( <= ( + Y8 72 ) Y3 )  )
( or ( <= ( + X3 16 ) X9 )  ( <= ( + X9 43 ) X3 )  ( <= ( + Y3 5 ) Y9 )  ( <= ( + Y9 65 ) Y3 )  )
( or ( <= ( + X3 16 ) X10 )  ( <= ( + X10 57 ) X3 )  ( <= ( + Y3 5 ) Y10 )  ( <= ( + Y10 47 ) Y3 )  )
( or ( <= ( + X3 16 ) X11 )  ( <= ( + X11 62 ) X3 )  ( <= ( + Y3 5 ) Y11 )  ( <= ( + Y11 25 ) Y3 )  )
( or ( <= ( + X3 16 ) X12 )  ( <= ( + X12 98 ) X3 )  ( <= ( + Y3 5 ) Y12 )  ( <= ( + Y12 84 ) Y3 )  )
( or ( <= ( + X3 16 ) X13 )  ( <= ( + X13 27 ) X3 )  ( <= ( + Y3 5 ) Y13 )  ( <= ( + Y13 37 ) Y3 )  )
( or ( <= ( + X3 16 ) X14 )  ( <= ( + X14 29 ) X3 )  ( <= ( + Y3 5 ) Y14 )  ( <= ( + Y14 14 ) Y3 )  )
( or ( <= ( + X4 9 ) X5 )  ( <= ( + X5 68 ) X4 )  ( <= ( + Y4 25 ) Y5 )  ( <= ( + Y5 63 ) Y4 )  )
( or ( <= ( + X4 9 ) X6 )  ( <= ( + X6 3 ) X4 )  ( <= ( + Y4 25 ) Y6 )  ( <= ( + Y6 53 ) Y4 )  )
( or ( <= ( + X4 9 ) X7 )  ( <= ( + X7 90 ) X4 )  ( <= ( + Y4 25 ) Y7 )  ( <= ( + Y7 69 ) Y4 )  )
( or ( <= ( + X4 9 ) X8 )  ( <= ( + X8 54 ) X4 )  ( <= ( + Y4 25 ) Y8 )  ( <= ( + Y8 72 ) Y4 )  )
( or ( <= ( + X4 9 ) X9 )  ( <= ( + X9 43 ) X4 )  ( <= ( + Y4 25 ) Y9 )  ( <= ( + Y9 65 ) Y4 )  )
( or ( <= ( + X4 9 ) X10 )  ( <= ( + X10 57 ) X4 )  ( <= ( + Y4 25 ) Y10 )  ( <= ( + Y10 47 ) Y4 )  )
( or ( <= ( + X4 9 ) X11 )  ( <= ( + X11 62 ) X4 )  ( <= ( + Y4 25 ) Y11 )  ( <= ( + Y11 25 ) Y4 )  )
( or ( <= ( + X4 9 ) X12 )  ( <= ( + X12 98 ) X4 )  ( <= ( + Y4 25 ) Y12 )  ( <= ( + Y12 84 ) Y4 )  )
( or ( <= ( + X4 9 ) X13 )  ( <= ( + X13 27 ) X4 )  ( <= ( + Y4 25 ) Y13 )  ( <= ( + Y13 37 ) Y4 )  )
( or ( <= ( + X4 9 ) X14 )  ( <= ( + X14 29 ) X4 )  ( <= ( + Y4 25 ) Y14 )  ( <= ( + Y14 14 ) Y4 )  )
( or ( <= ( + X5 68 ) X6 )  ( <= ( + X6 3 ) X5 )  ( <= ( + Y5 63 ) Y6 )  ( <= ( + Y6 53 ) Y5 )  )
( or ( <= ( + X5 68 ) X7 )  ( <= ( + X7 90 ) X5 )  ( <= ( + Y5 63 ) Y7 )  ( <= ( + Y7 69 ) Y5 )  )
( or ( <= ( + X5 68 ) X8 )  ( <= ( + X8 54 ) X5 )  ( <= ( + Y5 63 ) Y8 )  ( <= ( + Y8 72 ) Y5 )  )
( or ( <= ( + X5 68 ) X9 )  ( <= ( + X9 43 ) X5 )  ( <= ( + Y5 63 ) Y9 )  ( <= ( + Y9 65 ) Y5 )  )
( or ( <= ( + X5 68 ) X10 )  ( <= ( + X10 57 ) X5 )  ( <= ( + Y5 63 ) Y10 )  ( <= ( + Y10 47 ) Y5 )  )
( or ( <= ( + X5 68 ) X11 )  ( <= ( + X11 62 ) X5 )  ( <= ( + Y5 63 ) Y11 )  ( <= ( + Y11 25 ) Y5 )  )
( or ( <= ( + X5 68 ) X12 )  ( <= ( + X12 98 ) X5 )  ( <= ( + Y5 63 ) Y12 )  ( <= ( + Y12 84 ) Y5 )  )
( or ( <= ( + X5 68 ) X13 )  ( <= ( + X13 27 ) X5 )  ( <= ( + Y5 63 ) Y13 )  ( <= ( + Y13 37 ) Y5 )  )
( or ( <= ( + X5 68 ) X14 )  ( <= ( + X14 29 ) X5 )  ( <= ( + Y5 63 ) Y14 )  ( <= ( + Y14 14 ) Y5 )  )
( or ( <= ( + X6 3 ) X7 )  ( <= ( + X7 90 ) X6 )  ( <= ( + Y6 53 ) Y7 )  ( <= ( + Y7 69 ) Y6 )  )
( or ( <= ( + X6 3 ) X8 )  ( <= ( + X8 54 ) X6 )  ( <= ( + Y6 53 ) Y8 )  ( <= ( + Y8 72 ) Y6 )  )
( or ( <= ( + X6 3 ) X9 )  ( <= ( + X9 43 ) X6 )  ( <= ( + Y6 53 ) Y9 )  ( <= ( + Y9 65 ) Y6 )  )
( or ( <= ( + X6 3 ) X10 )  ( <= ( + X10 57 ) X6 )  ( <= ( + Y6 53 ) Y10 )  ( <= ( + Y10 47 ) Y6 )  )
( or ( <= ( + X6 3 ) X11 )  ( <= ( + X11 62 ) X6 )  ( <= ( + Y6 53 ) Y11 )  ( <= ( + Y11 25 ) Y6 )  )
( or ( <= ( + X6 3 ) X12 )  ( <= ( + X12 98 ) X6 )  ( <= ( + Y6 53 ) Y12 )  ( <= ( + Y12 84 ) Y6 )  )
( or ( <= ( + X6 3 ) X13 )  ( <= ( + X13 27 ) X6 )  ( <= ( + Y6 53 ) Y13 )  ( <= ( + Y13 37 ) Y6 )  )
( or ( <= ( + X6 3 ) X14 )  ( <= ( + X14 29 ) X6 )  ( <= ( + Y6 53 ) Y14 )  ( <= ( + Y14 14 ) Y6 )  )
( or ( <= ( + X7 90 ) X8 )  ( <= ( + X8 54 ) X7 )  ( <= ( + Y7 69 ) Y8 )  ( <= ( + Y8 72 ) Y7 )  )
( or ( <= ( + X7 90 ) X9 )  ( <= ( + X9 43 ) X7 )  ( <= ( + Y7 69 ) Y9 )  ( <= ( + Y9 65 ) Y7 )  )
( or ( <= ( + X7 90 ) X10 )  ( <= ( + X10 57 ) X7 )  ( <= ( + Y7 69 ) Y10 )  ( <= ( + Y10 47 ) Y7 )  )
( or ( <= ( + X7 90 ) X11 )  ( <= ( + X11 62 ) X7 )  ( <= ( + Y7 69 ) Y11 )  ( <= ( + Y11 25 ) Y7 )  )
( or ( <= ( + X7 90 ) X12 )  ( <= ( + X12 98 ) X7 )  ( <= ( + Y7 69 ) Y12 )  ( <= ( + Y12 84 ) Y7 )  )
( or ( <= ( + X7 90 ) X13 )  ( <= ( + X13 27 ) X7 )  ( <= ( + Y7 69 ) Y13 )  ( <= ( + Y13 37 ) Y7 )  )
( or ( <= ( + X7 90 ) X14 )  ( <= ( + X14 29 ) X7 )  ( <= ( + Y7 69 ) Y14 )  ( <= ( + Y14 14 ) Y7 )  )
( or ( <= ( + X8 54 ) X9 )  ( <= ( + X9 43 ) X8 )  ( <= ( + Y8 72 ) Y9 )  ( <= ( + Y9 65 ) Y8 )  )
( or ( <= ( + X8 54 ) X10 )  ( <= ( + X10 57 ) X8 )  ( <= ( + Y8 72 ) Y10 )  ( <= ( + Y10 47 ) Y8 )  )
( or ( <= ( + X8 54 ) X11 )  ( <= ( + X11 62 ) X8 )  ( <= ( + Y8 72 ) Y11 )  ( <= ( + Y11 25 ) Y8 )  )
( or ( <= ( + X8 54 ) X12 )  ( <= ( + X12 98 ) X8 )  ( <= ( + Y8 72 ) Y12 )  ( <= ( + Y12 84 ) Y8 )  )
( or ( <= ( + X8 54 ) X13 )  ( <= ( + X13 27 ) X8 )  ( <= ( + Y8 72 ) Y13 )  ( <= ( + Y13 37 ) Y8 )  )
( or ( <= ( + X8 54 ) X14 )  ( <= ( + X14 29 ) X8 )  ( <= ( + Y8 72 ) Y14 )  ( <= ( + Y14 14 ) Y8 )  )
( or ( <= ( + X9 43 ) X10 )  ( <= ( + X10 57 ) X9 )  ( <= ( + Y9 65 ) Y10 )  ( <= ( + Y10 47 ) Y9 )  )
( or ( <= ( + X9 43 ) X11 )  ( <= ( + X11 62 ) X9 )  ( <= ( + Y9 65 ) Y11 )  ( <= ( + Y11 25 ) Y9 )  )
( or ( <= ( + X9 43 ) X12 )  ( <= ( + X12 98 ) X9 )  ( <= ( + Y9 65 ) Y12 )  ( <= ( + Y12 84 ) Y9 )  )
( or ( <= ( + X9 43 ) X13 )  ( <= ( + X13 27 ) X9 )  ( <= ( + Y9 65 ) Y13 )  ( <= ( + Y13 37 ) Y9 )  )
( or ( <= ( + X9 43 ) X14 )  ( <= ( + X14 29 ) X9 )  ( <= ( + Y9 65 ) Y14 )  ( <= ( + Y14 14 ) Y9 )  )
( or ( <= ( + X10 57 ) X11 )  ( <= ( + X11 62 ) X10 )  ( <= ( + Y10 47 ) Y11 )  ( <= ( + Y11 25 ) Y10 )  )
( or ( <= ( + X10 57 ) X12 )  ( <= ( + X12 98 ) X10 )  ( <= ( + Y10 47 ) Y12 )  ( <= ( + Y12 84 ) Y10 )  )
( or ( <= ( + X10 57 ) X13 )  ( <= ( + X13 27 ) X10 )  ( <= ( + Y10 47 ) Y13 )  ( <= ( + Y13 37 ) Y10 )  )
( or ( <= ( + X10 57 ) X14 )  ( <= ( + X14 29 ) X10 )  ( <= ( + Y10 47 ) Y14 )  ( <= ( + Y14 14 ) Y10 )  )
( or ( <= ( + X11 62 ) X12 )  ( <= ( + X12 98 ) X11 )  ( <= ( + Y11 25 ) Y12 )  ( <= ( + Y12 84 ) Y11 )  )
( or ( <= ( + X11 62 ) X13 )  ( <= ( + X13 27 ) X11 )  ( <= ( + Y11 25 ) Y13 )  ( <= ( + Y13 37 ) Y11 )  )
( or ( <= ( + X11 62 ) X14 )  ( <= ( + X14 29 ) X11 )  ( <= ( + Y11 25 ) Y14 )  ( <= ( + Y14 14 ) Y11 )  )
( or ( <= ( + X12 98 ) X13 )  ( <= ( + X13 27 ) X12 )  ( <= ( + Y12 84 ) Y13 )  ( <= ( + Y13 37 ) Y12 )  )
( or ( <= ( + X12 98 ) X14 )  ( <= ( + X14 29 ) X12 )  ( <= ( + Y12 84 ) Y14 )  ( <= ( + Y14 14 ) Y12 )  )
( or ( <= ( + X13 27 ) X14 )  ( <= ( + X14 29 ) X13 )  ( <= ( + Y13 37 ) Y14 )  ( <= ( + Y14 14 ) Y13 )  )
( >= X0 0)
( <= ( + X0 45) Z)
( >= Y0 0)
( <= ( + Y0 53 ) 193)
( >= X1 0)
( <= ( + X1 88) Z)
( >= Y1 0)
( <= ( + Y1 37 ) 193)
( >= X2 0)
( <= ( + X2 7) Z)
( >= Y2 0)
( <= ( + Y2 81 ) 193)
( >= X3 0)
( <= ( + X3 16) Z)
( >= Y3 0)
( <= ( + Y3 5 ) 193)
( >= X4 0)
( <= ( + X4 9) Z)
( >= Y4 0)
( <= ( + Y4 25 ) 193)
( >= X5 0)
( <= ( + X5 68) Z)
( >= Y5 0)
( <= ( + Y5 63 ) 193)
( >= X6 0)
( <= ( + X6 3) Z)
( >= Y6 0)
( <= ( + Y6 53 ) 193)
( >= X7 0)
( <= ( + X7 90) Z)
( >= Y7 0)
( <= ( + Y7 69 ) 193)
( >= X8 0)
( <= ( + X8 54) Z)
( >= Y8 0)
( <= ( + Y8 72 ) 193)
( >= X9 0)
( <= ( + X9 43) Z)
( >= Y9 0)
( <= ( + Y9 65 ) 193)
( >= X10 0)
( <= ( + X10 57) Z)
( >= Y10 0)
( <= ( + Y10 47 ) 193)
( >= X11 0)
( <= ( + X11 62) Z)
( >= Y11 0)
( <= ( + Y11 25 ) 193)
( >= X12 0)
( <= ( + X12 98) Z)
( >= Y12 0)
( <= ( + Y12 84 ) 193)
( >= X13 0)
( <= ( + X13 27) Z)
( >= Y13 0)
( <= ( + Y13 37 ) 193)
( >= X14 0)
( <= ( + X14 29) Z)
( >= Y14 0)
( <= ( + Y14 14 ) 193)
) )
)(=> $phi $goal))))